(set-info :origin "Horn problem converted to SMT-LIB2 using Eldarica (https://github.com/uuverifiers/eldarica)")
(set-logic HORN)
(declare-fun INV_MAIN_42 (Int Int Int Int Int Int Int Int) Bool)
(assert (forall ((A Int) (B Int) (C Int) (D Int) (E Int) (F Int) (G Int) (H Int))(=> (and (and (and (not (and (= G C) (not (= H D)))) (= B 0)) (= E A)) (= F A)) (INV_MAIN_42 A B C D E F G H))))
(assert (forall ((A Int) (B Int) (C Int) (D Int) (E Int) (F Int) (G Int) (H Int) (I Int) (J Int) (K Int) (L Int) (M Int) (N Int) (O Int) (P Int) (Q Int) (R Int) (S Int) (T Int) (U Int) (V Int) (W Int) (X Int) (Y Int) (Z Int) (A1 Int) (B1 Int) (C1 Int) (D1 Int) (E1 Int) (F1 Int)) (not (and (and (and (and (and (and (and (and (and (and (and (and (and (and (and (and (and (and (and (and (and (and (and (and (and (and (and (and (and (and (and (INV_MAIN_42 A B C D E F G H) (INV_MAIN_42 I J K L M N O P)) (INV_MAIN_42 Q R S T U V W X)) (INV_MAIN_42 Y Z A1 B1 C1 D1 E1 F1)) (not (and (= (+ A1 (- (* (- 4) Z) Y)) 0) (not (= B1 0))))) (not (and (= D1 A1) (not (= F1 0))))) (not (= F1 B1))) (= E1 A1)) (= Q Y)) (= R Z)) (= S A1)) (= T B1)) (= U C1)) (= V D1)) (= W D1)) (= X 0)) (= I Y)) (= J Z)) (= (+ K (- (* (- 4) Z) Y)) 0)) (= L 0)) (= M C1)) (= N D1)) (= O A1)) (= P F1)) (= A Y)) (= B Z)) (= (+ C (- (* (- 4) Z) Y)) 0)) (= D 0)) (= E C1)) (= F D1)) (= G D1)) (= H 0)))))
(assert (forall ((A Int) (B Int) (C Int) (D Int) (E Int) (F Int) (G Int) (H Int)) (not (and (and (and (and (and (and (INV_MAIN_42 A B C D E F G H) (not (forall ((A Int)) (not (= (+ (* 4 A) (- E F)) (- 1)))))) (not (>= (+ F (- (* (- 4) B) E)) (- 2)))) (= (+ C (- (* (- 4) B) A)) 0)) (= D 0)) (= G F)) (= H 0)))))
(assert (forall ((A Int) (B Int) (C Int) (D Int) (E Int) (F Int) (G Int) (H Int)) (not (and (and (and (and (and (and (INV_MAIN_42 A B C D E F G H) (not (forall ((A Int)) (not (= (+ (* 4 A) (- E F)) (- 2)))))) (not (>= (+ F (- (* (- 4) B) E)) (- 1)))) (= (+ C (- (* (- 4) B) A)) 0)) (= D 0)) (= G F)) (= H 0)))))
(assert (forall ((A Int) (B Int) (C Int) (D Int) (E Int) (F Int) (G Int) (H Int)) (not (and (and (and (and (and (and (INV_MAIN_42 A B C D E F G H) (not (forall ((A Int)) (not (= (+ (* 4 A) (- E F)) 1))))) (not (>= (+ F (- (* (- 4) B) E)) 0))) (= (+ C (- (* (- 4) B) A)) 0)) (= D 0)) (= G F)) (= H 0)))))
(assert (forall ((A Int) (B Int) (C Int) (D Int) (E Int) (F Int) (G Int) (H Int)) (not (and (and (and (and (and (INV_MAIN_42 A B C D E F G H) (not (>= (+ F (- (* (- 4) B) E)) (- 3)))) (= (+ C (- (* (- 4) B) A)) 0)) (= D 0)) (= G F)) (= H 0)))))
(assert (forall ((A Int) (B Int) (C Int) (D Int) (E Int) (F Int) (G Int) (H Int)) (not (and (and (and (and (and (and (INV_MAIN_42 A B C D E F G H) (not (forall ((A Int)) (not (= (+ (* 4 A) (- E F)) (- 2)))))) (not (>= (- (+ E (* 4 B)) F) (- 5)))) (= (+ C (- (* (- 4) B) A)) 0)) (= D 0)) (= G F)) (= H 0)))))
(assert (forall ((A Int) (B Int) (C Int) (D Int) (E Int) (F Int) (G Int) (H Int)) (not (and (and (and (and (and (and (INV_MAIN_42 A B C D E F G H) (not (forall ((A Int)) (not (= (+ (* 4 A) (- E F)) (- 1)))))) (not (>= (- (+ E (* 4 B)) F) (- 4)))) (= (+ C (- (* (- 4) B) A)) 0)) (= D 0)) (= G F)) (= H 0)))))
(assert (forall ((A Int) (B Int) (C Int) (D Int) (E Int) (F Int) (G Int) (H Int)) (not (and (and (and (and (and (INV_MAIN_42 A B C D E F G H) (not (>= (- (+ E (* 4 B)) F) (- 3)))) (= (+ C (- (* (- 4) B) A)) 0)) (= D 0)) (= G F)) (= H 0)))))
(assert (forall ((A Int) (B Int) (C Int) (D Int) (E Int) (F Int) (G Int) (H Int)) (not (and (and (and (and (and (and (INV_MAIN_42 A B C D E F G H) (not (forall ((A Int)) (not (= (+ (* 4 A) (- E F)) 1))))) (not (>= (- (+ E (* 4 B)) F) (- 6)))) (= (+ C (- (* (- 4) B) A)) 0)) (= D 0)) (= G F)) (= H 0)))))
(assert (forall ((A Int) (B Int) (C Int) (D Int) (E Int) (F Int) (G Int) (H Int) (I Int) (J Int) (K Int) (L Int) (M Int) (N Int) (O Int) (P Int))(=> (and (and (and (and (and (and (and (and (and (and (and (and (INV_MAIN_42 I J K L M N O P) (not (= L 0))) (not (= P 0))) (= (+ C (- (* (- 4) B) A)) (- 4))) (= D 0)) (= (- G F) (- 4))) (= H 0)) (= I A)) (= (- J B) (- 1))) (= (+ K (- (* (- 4) B) A)) (- 4))) (= M E)) (= (- N F) (- 4))) (= (- O F) (- 4))) (INV_MAIN_42 A B C D E F G H))))
(assert (forall ((A Int) (B Int) (C Int) (D Int) (E Int) (F Int) (G Int) (H Int) (I Int) (J Int) (K Int) (L Int) (M Int) (N Int) (O Int) (P Int) (Q Int) (R Int) (S Int) (T Int) (U Int) (V Int) (W Int) (X Int))(=> (and (and (and (and (and (and (and (and (and (and (and (and (and (and (and (and (and (and (and (and (INV_MAIN_42 I J K L M N O P) (INV_MAIN_42 Q R S T U V W X)) (not (= (+ C (- (* (- 4) B) A)) (- 4)))) (not (= X 0))) (not (= L 0))) (= (- G F) (- 4))) (= H 0)) (= Q A)) (= (- R B) (- 1))) (= S C)) (= T D)) (= U E)) (= (- V F) (- 4))) (= (- W F) (- 4))) (= I A)) (= (- J B) (- 1))) (= (+ K (- (* (- 4) B) A)) (- 4))) (= M E)) (= (- N F) (- 4))) (= (- O F) (- 4))) (= P X)) (INV_MAIN_42 A B C D E F G H))))
(assert (forall ((A Int) (B Int) (C Int) (D Int) (E Int) (F Int) (G Int) (H Int) (I Int) (J Int) (K Int) (L Int) (M Int) (N Int) (O Int) (P Int) (Q Int) (R Int) (S Int) (T Int) (U Int) (V Int) (W Int) (X Int) (Y Int) (Z Int) (A1 Int) (B1 Int) (C1 Int) (D1 Int) (E1 Int) (F1 Int) (G1 Int) (H1 Int) (I1 Int) (J1 Int) (K1 Int) (L1 Int) (M1 Int) (N1 Int))(=> (and (and (and (and (and (and (and (and (and (and (and (and (and (and (and (and (and (and (and (and (and (and (and (and (and (and (and (and (and (and (and (and (and (and (and (and (and (INV_MAIN_42 I J K L M N O P) (INV_MAIN_42 Q R S T U V W X)) (INV_MAIN_42 Y Z A1 B1 C1 D1 E1 F1)) (INV_MAIN_42 G1 H1 I1 J1 K1 L1 M1 N1)) (not (= (+ C (- (* (- 4) B) A)) (- 4)))) (not (= (- G F) (- 4)))) (not (= F1 0))) (not (= T 0))) (= G1 A)) (= (- H1 B) (- 1))) (= I1 C)) (= J1 D)) (= K1 E)) (= (- L1 F) (- 4))) (= M1 G)) (= N1 H)) (= Y A)) (= (- Z B) (- 1))) (= A1 C)) (= B1 D)) (= C1 E)) (= (- D1 F) (- 4))) (= (- E1 F) (- 4))) (= Q A)) (= (- R B) (- 1))) (= (+ S (- (* (- 4) B) A)) (- 4))) (= U E)) (= (- V F) (- 4))) (= W G)) (= X H)) (= I A)) (= (- J B) (- 1))) (= (+ K (- (* (- 4) B) A)) (- 4))) (= L T)) (= M E)) (= (- N F) (- 4))) (= (- O F) (- 4))) (= P F1)) (INV_MAIN_42 A B C D E F G H))))
(assert (forall ((A Int) (B Int) (C Int) (D Int) (E Int) (F Int) (G Int) (H Int) (I Int) (J Int) (K Int) (L Int) (M Int) (N Int) (O Int) (P Int) (Q Int) (R Int) (S Int) (T Int) (U Int) (V Int) (W Int) (X Int))(=> (and (and (and (and (and (and (and (and (and (and (and (and (and (and (and (and (and (and (and (and (INV_MAIN_42 I J K L M N O P) (INV_MAIN_42 Q R S T U V W X)) (not (= (- G F) (- 4)))) (not (= T 0))) (not (= P 0))) (= (+ C (- (* (- 4) B) A)) (- 4))) (= D 0)) (= Q A)) (= (- R B) (- 1))) (= (+ S (- (* (- 4) B) A)) (- 4))) (= U E)) (= (- V F) (- 4))) (= W G)) (= X H)) (= I A)) (= (- J B) (- 1))) (= (+ K (- (* (- 4) B) A)) (- 4))) (= L T)) (= M E)) (= (- N F) (- 4))) (= (- O F) (- 4))) (INV_MAIN_42 A B C D E F G H))))
(assert (forall ((A Int) (B Int) (C Int) (D Int) (E Int) (F Int) (G Int) (H Int) (I Int) (J Int) (K Int) (L Int) (M Int) (N Int) (O Int) (P Int) (Q Int) (R Int) (S Int) (T Int) (U Int) (V Int) (W Int) (X Int) (Y Int) (Z Int) (A1 Int) (B1 Int) (C1 Int) (D1 Int) (E1 Int) (F1 Int) (G1 Int) (H1 Int) (I1 Int) (J1 Int) (K1 Int) (L1 Int) (M1 Int) (N1 Int))(=> (and (and (and (and (and (and (and (and (and (and (and (and (and (and (and (and (and (and (and (and (and (and (and (and (and (and (and (and (and (and (and (and (and (and (and (and (and (INV_MAIN_42 I J K L M N O P) (INV_MAIN_42 Q R S T U V W X)) (INV_MAIN_42 Y Z A1 B1 C1 D1 E1 F1)) (INV_MAIN_42 G1 H1 I1 J1 K1 L1 M1 N1)) (not (and (= G F) (not (= H 0))))) (not (= (+ C (- (* (- 4) B) A)) (- 4)))) (not (= T 0))) (= G1 A)) (= (- H1 B) (- 1))) (= I1 C)) (= J1 D)) (= K1 E)) (= L1 F)) (= M1 G)) (= N1 H)) (= Y A)) (= (- Z B) (- 1))) (= A1 C)) (= B1 D)) (= C1 E)) (= D1 F)) (= E1 F)) (= F1 0)) (= Q A)) (= (- R B) (- 1))) (= (+ S (- (* (- 4) B) A)) (- 4))) (= U E)) (= V F)) (= W G)) (= X H)) (= I A)) (= (- J B) (- 1))) (= (+ K (- (* (- 4) B) A)) (- 4))) (= L T)) (= M E)) (= N F)) (= O F)) (= P 0)) (INV_MAIN_42 A B C D E F G H))))
(assert (forall ((A Int) (B Int) (C Int) (D Int) (E Int) (F Int) (G Int) (H Int) (I Int) (J Int) (K Int) (L Int) (M Int) (N Int) (O Int) (P Int) (Q Int) (R Int) (S Int) (T Int) (U Int) (V Int) (W Int) (X Int))(=> (and (and (and (and (and (and (and (and (and (and (and (and (and (and (and (and (and (and (and (and (INV_MAIN_42 I J K L M N O P) (INV_MAIN_42 Q R S T U V W X)) (not (and (= G F) (not (= H 0))))) (not (= T 0))) (= (+ C (- (* (- 4) B) A)) (- 4))) (= D 0)) (= Q A)) (= (- R B) (- 1))) (= (+ S (- (* (- 4) B) A)) (- 4))) (= U E)) (= V F)) (= W G)) (= X H)) (= I A)) (= (- J B) (- 1))) (= (+ K (- (* (- 4) B) A)) (- 4))) (= L T)) (= M E)) (= N F)) (= O F)) (= P 0)) (INV_MAIN_42 A B C D E F G H))))
(assert (forall ((A Int) (B Int) (C Int) (D Int) (E Int) (F Int) (G Int) (H Int) (I Int) (J Int) (K Int) (L Int) (M Int) (N Int) (O Int) (P Int) (Q Int) (R Int) (S Int) (T Int) (U Int) (V Int) (W Int) (X Int))(=> (and (and (and (and (and (and (and (and (and (and (and (and (and (and (and (and (and (and (and (and (INV_MAIN_42 I J K L M N O P) (INV_MAIN_42 Q R S T U V W X)) (not (and (= (+ C (- (* (- 4) B) A)) 0) (not (= D 0))))) (not (= X 0))) (= (- G F) (- 4))) (= H 0)) (= Q A)) (= R B)) (= S C)) (= T D)) (= U E)) (= (- V F) (- 4))) (= (- W F) (- 4))) (= I A)) (= J B)) (= (+ K (- (* (- 4) B) A)) 0)) (= L 0)) (= M E)) (= (- N F) (- 4))) (= (- O F) (- 4))) (= P X)) (INV_MAIN_42 A B C D E F G H))))
(assert (forall ((A Int) (B Int) (C Int) (D Int) (E Int) (F Int) (G Int) (H Int) (I Int) (J Int) (K Int) (L Int) (M Int) (N Int) (O Int) (P Int) (Q Int) (R Int) (S Int) (T Int) (U Int) (V Int) (W Int) (X Int) (Y Int) (Z Int) (A1 Int) (B1 Int) (C1 Int) (D1 Int) (E1 Int) (F1 Int) (G1 Int) (H1 Int) (I1 Int) (J1 Int) (K1 Int) (L1 Int) (M1 Int) (N1 Int))(=> (and (and (and (and (and (and (and (and (and (and (and (and (and (and (and (and (and (and (and (and (and (and (and (and (and (and (and (and (and (and (and (and (and (and (and (and (and (INV_MAIN_42 I J K L M N O P) (INV_MAIN_42 Q R S T U V W X)) (INV_MAIN_42 Y Z A1 B1 C1 D1 E1 F1)) (INV_MAIN_42 G1 H1 I1 J1 K1 L1 M1 N1)) (not (and (= (+ C (- (* (- 4) B) A)) 0) (not (= D 0))))) (not (= (- G F) (- 4)))) (not (= F1 0))) (= G1 A)) (= H1 B)) (= I1 C)) (= J1 D)) (= K1 E)) (= (- L1 F) (- 4))) (= M1 G)) (= N1 H)) (= Y A)) (= Z B)) (= A1 C)) (= B1 D)) (= C1 E)) (= (- D1 F) (- 4))) (= (- E1 F) (- 4))) (= Q A)) (= R B)) (= (+ S (- (* (- 4) B) A)) 0)) (= T 0)) (= U E)) (= (- V F) (- 4))) (= W G)) (= X H)) (= I A)) (= J B)) (= (+ K (- (* (- 4) B) A)) 0)) (= L 0)) (= M E)) (= (- N F) (- 4))) (= (- O F) (- 4))) (= P F1)) (INV_MAIN_42 A B C D E F G H))))
(check-sat)
